c instance by G2
c solution = 101111100101111110011
c Known solution cost is 989 
p cnf 21 30
w 25 70 87 81 9 91 27 73 46 41 85 34 39 86 45 9 10 26 11 43 51
-17 -11 8 0
14 -4 2 0
19 12 -1 0
9 8 21 0
-2 18 -12 0
-21 1 -14 0
7 -14 -20 0
-16 14 13 0
-21 -5 13 0
15 -20 -10 0
20 -12 -13 0
-11 9 -2 0
-7 11 5 0
2 -12 -8 0
2 -18 -7 0
-9 6 5 0
8 -16 17 0
21 2 -19 0
13 20 -16 0
-9 -3 -15 0
-10 3 -7 0
-20 16 -3 0
-3 21 9 0
-17 -12 -19 0
9 4 -12 0
-16 -13 7 0
-15 6 -20 0
-11 -10 9 0
2 -7 -11 0
10 -3 2 0
